Figure: medium_3
File Number: 9
Nodes: 100
Edges: 2524
Max Generations: 1000
Population Size: 100
Mutation Rate: 0.01
Colors Used: 26
Runtime: 4.80

Generation,Average Fitness,Best Fitness
0,100.38,75
1,95.07,75
2,94.14,75
3,94.05,75
4,91.06,75
5,89.9,75
6,88.08,68
7,87.73,68
8,85.39,68
9,84.03,68
10,83.22,63
11,82.12,63
12,81.05,63
13,79.62,63
14,78.03,61
15,77.2,61
16,75.18,61
17,74.68,61
18,72.69,58
19,72.28,58
20,69.42,58
21,67.74,55
22,66.33,51
23,63.87,51
24,62.03,51
25,60.39,50
26,58.54,47
27,57.77,47
28,56.19,46
29,54.38,46
30,52.8,46
31,51.05,45
32,50.71,45
33,50.12,44
34,49.64,43
35,48.95,42
36,47.63,42
37,47.55,41
38,46.26,41
39,45.47,38
40,45.3,38
41,44.36,36
42,44.25,36
43,43.1,34
44,42.02,32
45,40.54,29
46,39.6,29
47,39.04,29
48,38.56,29
49,37.47,29
50,36.45,29
51,35.4,28
52,34.86,27
53,34.74,27
54,34.06,25
55,33.8,25
56,33.85,25
57,33.36,25
58,33.24,25
59,33.09,25
60,32.67,25
61,32.79,25
62,32.43,25
63,31.88,25
64,32.05,24
65,31.63,24
66,30.64,23
67,29.84,23
68,29.69,23
69,29.24,23
70,29.49,22
71,28.88,21
72,27.68,21
73,26.87,20
74,27.15,20
75,26.77,19
76,26.3,19
77,25.83,19
78,25.44,19
79,25.12,18
80,25.13,18
81,25.24,18
82,24.62,17
83,24.44,17
84,23.99,17
85,23.87,17
86,24.1,17
87,23.87,17
88,22.92,17
89,22.95,17
90,23.31,17
91,23.01,15
92,22.75,15
93,22.91,15
94,22.42,15
95,21.69,14
96,21.22,14
97,20.66,14
98,20.6,14
99,20.06,14
100,20.27,14
101,19.12,14
102,18.67,14
103,18.66,14
104,18.68,13
105,19.09,13
106,18.89,13
107,19.03,13
108,18.7,13
109,18.44,13
110,18.43,13
111,17.91,13
112,17.58,13
113,18.14,12
114,18.13,12
115,18.26,12
116,18.29,12
117,18.26,12
118,18.11,11
119,18.18,11
120,17.42,11
121,16.93,11
122,16.71,11
123,16.44,11
124,16.5,10
125,16.35,10
126,16.44,10
127,15.98,10
128,15.64,10
129,15.29,10
130,15.66,10
131,15.91,10
132,16.14,9
133,15.87,9
134,15.54,9
135,14.99,9
136,15.08,9
137,14.58,9
138,14.65,9
139,14.67,9
140,14.7,9
141,15.01,9
142,13.81,9
143,13.94,9
144,14.21,9
145,14.0,9
146,13.79,9
147,13.77,9
148,13.82,9
149,14.52,9
150,14.47,9
151,14.42,9
152,14.39,9
153,13.87,9
154,14.35,9
155,14.28,9
156,13.74,9
157,13.62,8
158,13.97,8
159,13.33,8
160,12.48,8
161,12.78,8
162,12.73,8
163,13.22,8
164,13.56,8
165,13.55,8
166,13.4,7
167,13.47,7
168,13.78,7
169,13.71,7
170,13.38,7
171,13.59,7
172,13.46,7
173,13.13,7
174,13.65,7
175,13.06,7
176,13.37,7
177,13.41,7
178,13.6,7
179,13.71,7
180,13.83,7
181,13.23,7
182,12.97,7
183,12.84,7
184,12.47,7
185,11.87,7
186,11.57,6
187,10.83,5
188,11.16,5
189,10.21,5
190,10.57,5
191,10.5,5
192,11.48,5
193,11.17,5
194,11.04,5
195,10.72,5
196,10.82,5
197,10.96,5
198,11.03,5
199,10.65,5
200,10.66,5
201,10.95,5
202,11.24,5
203,10.54,5
204,10.42,5
205,9.68,5
206,9.43,5
207,9.57,5
208,10.03,5
209,10.9,5
210,11.18,5
211,11.77,5
212,11.56,5
213,11.17,5
214,10.98,5
215,10.57,5
216,10.35,5
217,10.46,5
218,10.33,5
219,10.51,5
220,10.64,5
221,10.75,5
222,10.87,4
223,10.92,4
224,10.96,4
225,10.88,4
226,10.24,4
227,9.48,4
228,9.37,4
229,9.33,4
230,9.45,4
231,9.86,4
232,10.07,4
233,9.97,4
234,9.84,4
235,9.96,4
236,9.98,4
237,9.37,4
238,9.31,4
239,9.51,4
240,9.41,4
241,9.18,4
242,8.78,4
243,8.9,4
244,8.98,4
245,9.13,4
246,8.98,4
247,8.99,4
248,9.02,4
249,9.34,4
250,9.2,4
251,8.89,4
252,9.28,4
253,9.01,4
254,8.59,4
255,9.46,4
256,9.31,4
257,9.36,4
258,9.09,4
259,8.81,4
260,8.79,4
261,8.87,4
262,8.34,4
263,8.96,4
264,9.38,4
265,9.44,4
266,9.67,4
267,8.49,4
268,9.17,4
269,9.53,4
270,9.11,4
271,8.98,4
272,9.28,4
273,9.04,4
274,9.18,4
275,9.71,4
276,9.43,4
277,9.61,4
278,9.83,4
279,9.5,4
280,9.12,4
281,9.66,4
282,9.03,4
283,8.92,4
284,8.86,4
285,9.17,3
286,9.49,3
287,9.09,3
288,8.96,3
289,8.98,3
290,8.89,3
291,8.78,3
292,8.44,3
293,8.39,3
294,8.73,3
295,8.97,3
296,9.18,3
297,9.29,3
298,9.4,3
299,9.46,3
300,9.74,3
301,9.63,3
302,9.41,3
303,8.82,3
304,8.4,3
305,8.23,3
306,8.76,3
307,8.84,3
308,8.69,3
309,8.56,3
310,8.14,3
311,7.66,3
312,8.2,3
313,8.67,3
314,7.38,3
315,8.25,3
316,8.37,3
317,8.74,3
318,8.78,3
319,9.07,3
320,9.82,3
321,10.24,3
322,9.59,3
323,9.46,2
324,9.35,2
325,9.27,2
326,9.63,2
327,10.33,2
328,10.09,2
329,10.07,2
330,9.96,2
331,9.56,2
332,8.95,2
333,8.7,2
334,8.86,2
335,8.77,2
336,8.63,2
337,8.49,2
338,8.27,2
339,7.89,2
340,8.14,2
341,7.8,2
342,7.74,1
343,7.63,1
344,7.33,1
345,7.35,1
346,7.45,1
347,7.06,1
348,7.0,1
349,7.03,1
350,6.94,1
351,6.9,1
352,6.88,1
353,7.24,1
354,7.51,1
355,7.19,1
356,7.13,1
357,7.06,1
358,7.47,1
359,7.49,1
360,7.93,1
361,7.46,1
362,7.92,1
363,8.01,1
364,7.91,1
365,8.09,1
366,8.39,1
367,7.79,1
368,7.33,1
369,7.38,1
370,7.01,1
371,7.27,1
372,7.77,1
373,8.03,1
374,7.61,1
375,7.58,1
376,7.81,1
377,6.56,1
378,7.08,1
379,7.36,1
380,7.33,1
381,6.74,1
382,7.08,1
383,6.75,1
384,6.93,1
385,7.62,1
386,7.52,1
387,7.71,1
388,7.85,1
389,7.65,1
390,7.88,1
391,7.71,1
392,7.62,1
393,8.03,1
394,8.08,1
395,8.29,1
396,7.88,1
397,8.14,1
398,7.85,1
399,8.05,1
400,7.99,1
401,8.06,1
402,8.32,1
403,8.0,1
404,7.46,1
405,7.22,1
406,7.27,1
407,7.94,1
408,7.46,1
409,6.99,1
410,6.86,1
411,6.44,1
412,7.06,1
413,7.19,1
414,6.89,1
415,6.81,1
416,6.75,1
417,6.28,1
418,6.34,1
419,6.76,1
420,6.79,1
421,7.1,1
422,7.01,1
423,6.35,1
424,6.42,1
425,6.85,1
426,6.51,1
427,6.32,1
428,6.19,1
429,5.75,1
430,5.44,1
431,5.83,1
432,5.42,1
433,5.56,1
434,5.68,1
435,6.2,1
436,6.19,1
437,6.11,1
438,5.71,1
439,5.86,1
440,6.11,1
441,6.52,1
442,6.72,1
443,6.6,1
444,6.31,1
445,6.1,1
446,6.03,1
447,6.25,1
448,6.36,1
449,6.5,1
450,6.08,1
451,6.08,1
452,6.53,1
453,6.82,1
454,7.43,1
455,7.51,1
456,7.44,1
457,6.78,1
458,6.65,1
459,5.71,1
460,5.96,1
461,5.92,1
462,6.3,1
463,6.23,1
464,6.0,1
465,6.64,1
466,6.53,1
467,6.27,1
468,6.58,1
469,6.64,1
470,7.03,1
471,6.45,1
472,6.4,1
473,6.94,1
474,6.57,1
475,6.78,1
476,7.49,1
477,7.57,1
478,7.75,1
479,7.76,1
480,7.61,1
481,7.6,1
482,7.35,1
483,6.86,1
484,6.09,1
485,6.21,1
486,6.19,1
487,6.41,1
488,6.09,1
489,6.21,1
490,6.67,1
491,6.26,1
492,6.7,1
493,7.15,1
494,7.07,1
495,7.17,1
496,7.39,1
497,7.36,1
498,7.24,1
499,7.18,1
500,7.15,1
501,7.27,1
502,7.65,1
503,7.53,1
504,7.22,1
505,6.56,1
506,6.94,1
507,6.96,1
508,6.63,1
509,6.77,1
510,6.45,1
511,6.33,1
512,6.62,1
513,7.1,1
514,7.86,1
515,8.33,1
516,7.71,1
517,7.95,1
518,8.03,1
519,6.88,1
520,6.84,1
521,7.0,1
522,6.74,1
523,6.59,1
524,6.59,1
525,6.48,1
526,6.8,1
527,7.41,1
528,7.0,1
529,7.27,1
530,6.78,1
531,6.53,1
532,6.44,1
533,6.65,1
534,7.07,1
535,7.47,1
536,7.83,1
537,8.28,1
538,7.82,1
539,7.84,1
540,7.54,1
541,7.4,1
542,7.58,1
543,7.12,1
544,7.02,1
545,7.02,1
546,6.73,1
547,6.56,1
548,6.97,1
549,7.46,1
550,7.16,1
551,6.54,1
552,7.13,1
553,7.32,1
554,7.22,1
555,7.37,1
556,7.62,1
557,6.95,1
558,7.14,1
559,7.61,1
560,7.62,1
561,7.24,1
562,7.37,1
563,7.51,1
564,7.91,1
565,7.62,1
566,7.36,1
567,6.95,1
568,7.28,1
569,6.59,1
570,6.6,1
571,6.01,1
572,5.96,1
573,5.98,1
574,5.86,1
575,5.44,1
576,5.36,1
577,5.78,1
578,5.48,1
579,5.64,1
580,5.74,1
581,5.96,1
582,6.38,1
583,6.92,1
584,6.83,1
585,6.63,1
586,6.84,1
587,6.96,1
588,6.92,1
589,6.63,1
590,6.51,1
591,6.86,1
592,6.77,1
593,6.84,1
594,6.7,1
595,6.58,1
596,6.55,1
597,7.23,1
598,7.17,1
599,7.29,1
600,7.34,1
601,7.53,1
602,7.72,1
603,7.09,1
604,7.06,1
605,6.75,1
606,6.5,1
607,6.89,1
608,7.35,1
609,7.58,1
610,7.19,1
611,7.28,1
612,7.12,1
613,6.98,1
614,7.3,1
615,7.3,1
616,8.17,1
617,7.96,1
618,8.15,1
619,7.81,1
620,7.61,1
621,6.68,1
622,6.49,1
623,6.64,1
624,6.89,1
625,7.4,1
626,6.96,1
627,7.12,1
628,7.03,1
629,6.9,1
630,6.75,1
631,6.9,1
632,6.73,1
633,6.74,1
634,6.93,1
635,6.83,1
636,6.57,1
637,6.92,1
638,7.18,1
639,7.12,1
640,6.93,1
641,6.97,1
642,6.55,1
643,6.12,1
644,6.83,1
645,6.92,1
646,7.12,1
647,6.98,1
648,7.41,1
649,7.12,1
650,7.19,1
651,7.38,1
652,7.49,1
653,7.11,1
654,7.67,1
655,7.93,1
656,8.27,1
657,7.82,1
658,7.57,1
659,7.36,1
660,8.01,1
661,7.84,1
662,7.68,1
663,7.4,1
664,7.54,1
665,7.16,1
666,7.17,1
667,6.74,1
668,7.34,1
669,7.62,1
670,7.05,1
671,6.89,1
672,6.88,1
673,7.45,1
674,7.62,1
675,6.77,1
676,7.04,1
677,7.42,1
678,7.34,1
679,7.84,1
680,7.48,1
681,7.7,1
682,8.43,1
683,8.02,1
684,7.39,1
685,7.19,1
686,7.52,1
687,7.26,1
688,7.3,1
689,7.44,1
690,7.38,1
691,6.43,1
692,6.2,1
693,6.16,1
694,6.4,1
695,6.32,1
696,7.07,1
697,6.73,1
698,6.38,1
699,5.79,1
700,5.78,1
701,5.71,1
702,5.53,1
703,5.33,1
704,5.74,1
705,6.2,1
706,6.59,1
707,6.42,1
708,6.14,1
709,6.61,1
710,6.81,1
711,7.22,1
712,7.5,1
713,7.26,1
714,7.22,1
715,6.88,1
716,7.02,1
717,7.41,1
718,7.33,1
719,6.83,1
720,7.45,1
721,7.5,1
722,6.47,1
723,6.58,1
724,6.75,1
725,6.19,1
726,6.69,1
727,6.24,1
728,7.18,1
729,6.91,1
730,7.04,1
731,6.41,1
732,6.24,1
733,6.96,1
734,6.5,1
735,6.47,1
736,6.71,1
737,7.04,1
738,6.6,1
739,6.78,1
740,6.83,1
741,6.74,1
742,6.71,1
743,7.21,1
744,7.04,1
745,7.35,1
746,6.79,1
747,6.95,1
748,6.9,1
749,6.84,1
750,6.4,1
751,6.41,1
752,6.1,1
753,6.27,1
754,6.42,1
755,6.22,1
756,6.57,1
757,7.41,1
758,7.67,1
759,7.06,1
760,6.81,1
761,6.54,1
762,6.6,1
763,5.88,1
764,6.21,1
765,6.42,1
766,6.49,1
767,6.52,1
768,6.62,1
769,6.4,1
770,6.53,1
771,6.31,1
772,6.23,1
773,6.34,1
774,6.9,1
775,6.68,1
776,6.74,1
777,7.48,1
778,7.7,1
779,7.19,1
780,7.31,1
781,7.48,1
782,7.55,1
783,7.34,1
784,7.07,1
785,7.35,1
786,7.54,1
787,7.01,1
788,6.97,1
789,6.24,1
790,6.37,1
791,6.83,1
792,6.78,1
793,6.52,1
794,6.63,1
795,6.4,1
796,6.78,1
797,6.96,1
798,6.66,1
799,7.19,1
800,7.19,1
801,7.29,1
802,8.39,1
803,7.64,1
804,7.49,1
805,7.18,1
806,7.34,1
807,7.19,1
808,6.75,1
809,6.23,1
810,6.55,1
811,6.71,1
812,6.26,1
813,6.37,1
814,6.59,1
815,7.06,1
816,7.09,1
817,7.3,1
818,7.57,1
819,7.07,1
820,7.42,1
821,7.79,1
822,7.85,1
823,7.74,1
824,7.31,1
825,7.45,1
826,7.58,1
827,7.59,1
828,7.06,1
829,6.91,1
830,6.92,1
831,6.46,1
832,6.45,1
833,6.16,1
834,6.48,1
835,6.57,1
836,5.98,1
837,6.12,1
838,6.27,1
839,6.6,1
840,6.14,1
841,5.7,1
842,5.67,1
843,5.74,1
844,5.8,1
845,5.24,1
846,5.54,1
847,5.32,1
848,5.0,1
849,5.06,1
850,5.11,1
851,5.1,1
852,5.77,1
853,5.06,1
854,5.37,1
855,5.84,1
856,6.07,1
857,6.58,1
858,5.98,1
859,5.43,1
860,5.51,1
861,6.31,1
862,6.7,1
863,6.1,1
864,6.09,1
865,6.17,1
866,6.65,1
867,6.91,1
868,7.67,1
869,7.69,1
870,7.19,1
871,7.37,1
872,7.71,1
873,7.99,1
874,7.73,1
875,7.48,1
876,7.6,1
877,8.04,1
878,8.05,1
879,8.16,1
880,8.39,1
881,8.17,1
882,8.22,1
883,8.36,1
884,7.87,1
885,7.76,1
886,7.22,1
887,7.79,1
888,7.71,1
889,8.15,1
890,8.09,1
891,8.29,1
892,8.2,1
893,8.28,1
894,8.34,1
895,8.59,1
896,8.37,1
897,8.09,1
898,7.92,1
899,7.86,1
900,8.03,1
901,7.86,1
902,7.57,1
903,7.24,1
904,7.3,1
905,7.4,1
906,7.0,1
907,6.38,1
908,6.43,1
909,5.76,1
910,6.09,1
911,6.15,1
912,5.83,1
913,6.03,1
914,6.55,1
915,6.6,1
916,6.2,1
917,6.74,1
918,7.18,1
919,6.64,1
920,6.89,1
921,7.09,1
922,6.83,1
923,7.18,1
924,7.26,1
925,7.09,1
926,6.72,1
927,7.16,1
928,6.43,1
929,6.74,1
930,6.66,1
931,6.37,1
932,6.93,1
933,7.46,1
934,7.12,1
935,7.01,1
936,7.02,1
937,7.04,1
938,6.62,1
939,6.33,1
940,6.41,1
941,6.62,1
942,6.42,1
943,6.83,1
944,6.83,1
945,7.24,1
946,6.7,1
947,6.52,1
948,6.07,1
949,5.86,1
950,6.42,1
951,6.28,1
952,7.38,1
953,7.15,1
954,7.17,1
955,7.19,1
956,6.48,1
957,6.32,1
958,6.34,1
959,6.54,1
960,6.59,1
961,6.72,1
962,6.78,1
963,6.4,1
964,7.53,1
965,6.91,1
966,6.96,1
967,7.09,1
968,6.72,1
969,6.7,1
970,6.65,1
971,7.11,1
972,6.87,1
973,6.82,1
974,7.1,1
975,7.59,1
976,7.82,1
977,7.75,1
978,7.24,1
979,6.44,1
980,6.53,1
981,6.85,1
982,7.28,1
983,7.65,1
984,7.41,1
985,7.38,1
986,7.11,1
987,5.89,1
988,6.09,1
989,6.38,1
990,6.32,1
991,6.3,1
992,6.14,1
993,5.85,1
994,5.86,1
995,6.05,1
996,6.44,1
997,6.83,1
998,6.53,1
999,7.08,1
